
Gurobi 13.0.1 (mac64[arm], Python) logging started Fri Apr 17 13:13:56 2026

Set parameter LogToConsole to value 0
Set parameter Username
Set parameter LicenseID to value 2799845
Set parameter LogFile to value "/Users/monitsharma/SMU-Quantum-Repos/quantum-optimization-benchmarks/classical_solutions/results/qap/logs/tai12b_solver.log"
Academic license - for non-commercial use only - expires 2027-03-30
Set parameter TimeLimit to value 100
Set parameter Threads to value 0
Set parameter MIPGap to value 0
Set parameter MIPFocus to value 0
Set parameter DisplayInterval to value 5
Set parameter NonConvex to value 2
Gurobi Optimizer version 13.0.1 build v13.0.1rc0 (mac64[arm] - Darwin 25.4.0 25E253)

CPU model: Apple M3 Pro
Thread count: 12 physical cores, 12 logical processors, using up to 12 threads

Non-default parameters:
TimeLimit  100
MIPGap  0
LogToConsole  0
NonConvex  2

Optimize a model with 24 rows, 144 columns and 288 nonzeros (Min)
Model fingerprint: 0x1d5f3126
Model has 0 linear objective coefficients
Model has 7040 quadratic objective terms
Variable types: 0 continuous, 144 integer (144 binary)
Coefficient statistics:
  Matrix range     [1e+00, 1e+00]
  Objective range  [0e+00, 0e+00]
  QObjective range [2e+00, 6e+07]
  Bounds range     [1e+00, 1e+00]
  RHS range        [1e+00, 1e+00]

Found heuristic solution: objective 9.891893e+07
Presolve time: 0.05s
Presolved: 24 rows, 144 columns, 288 nonzeros
Presolved model has 7184 quadratic objective terms
Variable types: 0 continuous, 144 integer (144 binary)

Root relaxation: objective -6.607320e+08, 157 iterations, 0.00 seconds (0.01 work units)

    Nodes    |    Current Node    |     Objective Bounds      |     Work
 Expl Unexpl |  Obj  Depth IntInf | Incumbent    BestBd   Gap | It/Node Time

H    0     0                    6.420501e+07    0.00000   100%     -    0s
     0     0    0.00000    0  128 6.4205e+07    0.00000   100%     -    0s
H    0     0                    6.174460e+07    0.00000   100%     -    0s
     0     0    0.00000    0  128 6.1745e+07    0.00000   100%     -    0s
H    0     0                    5.766270e+07    0.00000   100%     -    0s
H    0     0                    5.245061e+07    0.00000   100%     -    0s
H    0     0                    5.144279e+07    0.00000   100%     -    0s
H    0     0                    5.142570e+07    0.00000   100%     -    0s
H    0     0                    5.137711e+07    0.00000   100%     -    0s
H    0     2                    4.801909e+07    0.00000   100%     -    0s
     0     2    0.00000    0  128 4.8019e+07    0.00000   100%     -    0s
H   87    88                    4.695623e+07    0.00000   100%   4.7    0s
H  174   203                    4.629258e+07 867076.678  98.1%  11.8    0s
H  324   268                    4.623823e+07 867076.678  98.1%   9.8    0s
* 1973  1394              63    4.598828e+07 867076.678  98.1%   8.5    0s
* 2070  1393              74    4.474759e+07 867076.678  98.1%   8.6    0s
H 2926  1734                    4.460021e+07 867076.678  98.1%   8.9    0s
H 3182  1806                    4.421559e+07 867076.678  98.0%   9.3    0s
H10935  4606                    4.417744e+07 867076.678  98.0%   9.1    0s
*16139  6640              81    4.348432e+07 867076.678  98.0%   8.6    0s
*19042  7937              81    4.287199e+07 1236337.44  97.1%   8.4    0s
*30944 12855              73    4.197056e+07 2983427.14  92.9%   7.8    1s
*43142 16516              72    4.193753e+07 4111556.88  90.2%   7.6    1s
*45905 17331              66    4.151446e+07 4318534.77  89.6%   7.6    1s
*66016 23812              76    4.134430e+07 5891615.39  85.7%   7.4    1s
*101850 32140              74    3.990603e+07 8056566.01  79.8%   7.1    2s
*121015 36214              66    3.982077e+07 9258788.19  76.7%   7.0    2s
H125942 36864                    3.947725e+07 9481020.00  76.0%   7.0    2s
H131884 38124                    3.946492e+07 9871633.78  75.0%   7.0    2s
 260335 52559 2.8886e+07   77   20 3.9465e+07 1.6193e+07  59.0%   6.7    5s
 518540 35634 3.5702e+07   56   20 3.9465e+07 2.8993e+07  26.5%   6.3   10s
H555365 22230                    3.946489e+07 3.2096e+07  18.7%   6.3   10s

Cutting planes:
  Implied bound: 7
  MIR: 4
  Flow cover: 11
  RLT: 1
  Relax-and-lift: 2

Explored 590204 nodes (3615430 simplex iterations) in 11.17 seconds (24.55 work units)
Thread count was 12 (of 12 available processors)

Solution count 10: 3.94649e+07 3.94772e+07 3.98208e+07 ... 4.34843e+07

Optimal solution found (tolerance 0.00e+00)
Best objective 3.946489416728e+07, best bound 3.946489416728e+07, gap 0.0000%
